p cnf 9 43 
c Factors encoded in variables 1-6 and 7-9
c Target number: 287
c Factors: 41 x 7
5 -9 8 0
4 3 -8 0
-5 -4 3 -8 0
-6 -5 -4 9 0
-5 -8 0
2 8 0
6 -4 -2 -9 -8 0
-5 -3 -8 0
8 9 0
5 3 -2 -8 0
6 -5 0
-5 3 2 9 -8 0
4 -3 -2 0
-4 -3 -8 0
1 0
-5 -4 -3 -2 -8 0
-5 -4 -3 -2 -9 0
-6 9 0
5 -4 8 0
2 3 4 5 6 0
6 4 3 0
6 5 0
-5 -4 -9 0
7 0
5 -2 0
5 4 0
-6 4 3 -9 8 0
-6 -5 -4 3 -8 0
4 9 8 0
-6 5 -9 8 0
3 9 0
-4 2 9 0
-6 -4 -3 8 0
-5 -4 -3 -2 -9 -8 0
-6 5 4 3 2 0
-3 9 0
-4 -2 -9 0
-6 5 4 9 -8 0
-3 -9 0
-5 -3 2 -9 -8 0
6 3 2 0
-2 -8 0
5 4 9 0
